Reading model...
...model read.
creating competitive generators file...
...competitive generators recorded.
Loading data...
.. real-time data read.
Compiling instance...
0.0
0.0
0.0
0.0
...instance created.
Creating Offer Mitigation (model will solve as dispatch if TRUE)...
NOTE: storage offers will not be mitigated
...storage offer mitigation file created
Converting model to MPEC...
...converted
NOTE: initial MIP solve with only storage competitive to get feasible solution
Solving...

Welcome to IBM(R) ILOG(R) CPLEX(R) Interactive Optimizer 12.9.0.0
  with Simplex, Mixed Integer & Barrier Optimizers
5725-A06 5725-A29 5724-Y48 5724-Y49 5724-Y54 5724-Y55 5655-Y21
Copyright IBM Corp. 1988, 2019.  All Rights Reserved.

Type 'help' for a list of available commands.
Type 'help' followed by a command name for more
information on commands.

CPLEX> Logfile 'cplex.log' closed.
Logfile 'C:\Users\llavin\Desktop\test826\logs\tmpq9yleqz5.cplex.log' open.
CPLEX> New value for parallel optimization mode: -1
CPLEX> New value for mixed integer optimality gap tolerance: 0.05
CPLEX> New value for feasibility tolerance: 1e-09
CPLEX> New value for emphasis for MIP optimization: 1
CPLEX> New value for deterministic time limit in ticks: 100000
CPLEX> Problem 'C:\Users\llavin\Desktop\test826\logs\tmp_w5081z7.pyomo.lp' read.
Read time = 0.55 sec. (28.54 ticks)
CPLEX> Problem name         : C:\Users\llavin\Desktop\test826\logs\tmp_w5081z7.pyomo.lp
Objective sense      : Maximize
Variables            :  107783  [Nneg: 1,  Box: 44058,  Free: 8928,
                                 Binary: 54796]
Objective nonzeros   :   19010
Linear constraints   :  246901  [Less: 82864,  Greater: 118424,  Equal: 45613]
  Nonzeros           :  619805
  RHS nonzeros       :  136512

Variables            : Min LB: -5000.000        Max UB: 1000000.       
Objective nonzeros   : Min   : 0.1666667        Max   : 208.3333       
Linear constraints   :
  Nonzeros           : Min   : 0.1666667        Max   : 1000000.       
  RHS nonzeros       : Min   : 0.1666667        Max   : 1000000.       
CPLEX> CPXPARAM_Parallel                                -1
CPXPARAM_Emphasis_MIP                            1
CPXPARAM_Simplex_Tolerances_Feasibility          1.0000000000000001e-09
CPXPARAM_DetTimeLimit                            100000
CPXPARAM_MIP_Tolerances_MIPGap                   0.050000000000000003
Tried aggregator 3 times.
MIP Presolve eliminated 173236 rows and 34281 columns.
MIP Presolve added 7727 rows and 0 columns.
MIP Presolve modified 53218 coefficients.
Aggregator did 26144 substitutions.
Reduced MIP has 55248 rows, 46974 columns, and 160520 nonzeros.
Reduced MIP has 18641 binaries, 0 generals, 0 SOSs, and 0 indicators.
Presolve time = 0.64 sec. (356.37 ticks)
Probing fixed 852 vars, tightened 15519 bounds.
Probing time = 0.45 sec. (19.11 ticks)
Tried aggregator 2 times.
MIP Presolve eliminated 1912 rows and 1729 columns.
MIP Presolve modified 7114 coefficients.
Aggregator did 80 substitutions.
Reduced MIP has 53256 rows, 45165 columns, and 151434 nonzeros.
Reduced MIP has 17784 binaries, 0 generals, 0 SOSs, and 0 indicators.
Presolve time = 0.31 sec. (278.57 ticks)
Probing fixed 5 vars, tightened 475 bounds.
Probing time = 0.61 sec. (21.72 ticks)
Clique table members: 87259.
MIP emphasis: integer feasibility.
MIP search method: dynamic search.
Parallel mode: opportunistic, using up to 32 threads.
Root relaxation solution time = 1.34 sec. (2266.27 ticks)

        Nodes                                         Cuts/
   Node  Left     Objective  IInf  Best Integer    Best Bound    ItCnt     Gap

      0     0        0.0000    34                      0.0000    11048         
*     0     0      integral     0        0.0000        0.0000    11048    0.00%
Elapsed time = 5.34 sec. (4827.09 ticks, tree = 0.01 MB, solutions = 1)

Root node processing (before b&c):
  Real time             =    5.38 sec. (4831.10 ticks)
Parallel b&c, 32 threads:
  Real time             =    0.00 sec. (0.00 ticks)
  Sync time (average)   =    0.00 sec.
  Wait time (average)   =    0.00 sec.
                          ------------
Total (root+branch&cut) =    5.38 sec. (4831.10 ticks)

Solution pool: 1 solution saved.

MIP - Integer optimal solution:  Objective =  5.8020077631e-10
Solution time =    5.39 sec.  Iterations = 11048  Nodes = 0
Deterministic time = 4831.40 ticks  (896.36 ticks/sec)

CPLEX> Incumbent solution written to file 'C:\Users\llavin\Desktop\test826\logs\tmpvg46orsg.cplex.sol'.
CPLEX> NOTE: no warmstart specified for MIP iteration, default behavior is true
NOTE: resolving with all competitive generators using storage-only solution to warmstart
Solving...

Welcome to IBM(R) ILOG(R) CPLEX(R) Interactive Optimizer 12.9.0.0
  with Simplex, Mixed Integer & Barrier Optimizers
5725-A06 5725-A29 5724-Y48 5724-Y49 5724-Y54 5724-Y55 5655-Y21
Copyright IBM Corp. 1988, 2019.  All Rights Reserved.

Type 'help' for a list of available commands.
Type 'help' followed by a command name for more
information on commands.

CPLEX> Logfile 'cplex.log' closed.
Logfile 'C:\Users\llavin\Desktop\test826\logs\tmpuqbf3rhy.cplex.log' open.
CPLEX> New value for parallel optimization mode: -1
CPLEX> New value for mixed integer optimality gap tolerance: 0.05
CPLEX> New value for feasibility tolerance: 1e-09
CPLEX> New value for emphasis for MIP optimization: 1
CPLEX> New value for deterministic time limit in ticks: 100000
CPLEX> Problem 'C:\Users\llavin\Desktop\test826\logs\tmp9k1yvsl0.pyomo.lp' read.
Read time = 0.53 sec. (28.59 ticks)
CPLEX> MIP start file 'C:\Users\llavin\Desktop\test826\logs\tmpsnkf6xbb.cplex.mst' read.
CPLEX> Problem name         : C:\Users\llavin\Desktop\test826\logs\tmp9k1yvsl0.pyomo.lp
Objective sense      : Maximize
Variables            :  109223  [Nneg: 1,  Box: 45498,  Free: 8928,
                                 Binary: 54796]
Objective nonzeros   :   20402
Linear constraints   :  246901  [Less: 82864,  Greater: 118424,  Equal: 45613]
  Nonzeros           :  619805
  RHS nonzeros       :  136512

Variables            : Min LB: -5000.000        Max UB: 1000000.       
Objective nonzeros   : Min   : 0.1666667        Max   : 208.3333       
Linear constraints   :
  Nonzeros           : Min   : 0.1666667        Max   : 1000000.       
  RHS nonzeros       : Min   : 0.1666667        Max   : 1000000.       
CPLEX> CPXPARAM_Parallel                                -1
CPXPARAM_Emphasis_MIP                            1
CPXPARAM_Simplex_Tolerances_Feasibility          1.0000000000000001e-09
CPXPARAM_DetTimeLimit                            100000
CPXPARAM_MIP_Tolerances_MIPGap                   0.050000000000000003
Warning:  No solution found from 1 MIP starts.
Retaining values of one MIP start for possible repair.
Tried aggregator 3 times.
MIP Presolve eliminated 173236 rows and 35721 columns.
MIP Presolve added 7727 rows and 0 columns.
MIP Presolve modified 53218 coefficients.
Aggregator did 26144 substitutions.
Reduced MIP has 55248 rows, 46974 columns, and 160520 nonzeros.
Reduced MIP has 18641 binaries, 0 generals, 0 SOSs, and 0 indicators.
Presolve time = 0.61 sec. (357.11 ticks)
Probing fixed 852 vars, tightened 15519 bounds.
Probing time = 0.42 sec. (19.11 ticks)
Tried aggregator 2 times.
MIP Presolve eliminated 1912 rows and 1729 columns.
MIP Presolve modified 7114 coefficients.
Aggregator did 80 substitutions.
Reduced MIP has 53256 rows, 45165 columns, and 151434 nonzeros.
Reduced MIP has 17784 binaries, 0 generals, 0 SOSs, and 0 indicators.
Presolve time = 0.31 sec. (278.59 ticks)
Probing fixed 5 vars, tightened 475 bounds.
Probing time = 0.58 sec. (21.72 ticks)
Clique table members: 87259.
MIP emphasis: integer feasibility.
MIP search method: dynamic search.
Parallel mode: opportunistic, using up to 32 threads.
Root relaxation solution time = 1.53 sec. (2547.61 ticks)

        Nodes                                         Cuts/
   Node  Left     Objective  IInf  Best Integer    Best Bound    ItCnt     Gap

      0     0     1291.3203    66                   1291.3203    12352         
      0     0     1247.2217    18                    Cuts: 72    12430         
      0     0     1238.1354    16                    Cuts: 10    12456         
      0     0     1226.2537    13                     Cuts: 6    12463         
Repair heuristic found nothing.
      0    24      797.2533     9                 Impl Bds: 1    12638         
Elapsed time = 8.92 sec. (5315.21 ticks, tree = 0.02 MB, solutions = 0)
    339   121      762.5529     2                   1110.9548    13112         
    606   137      758.6229     2                   1110.9548    13168         
    896   618    infeasible                         1110.9548    20846         
   1194   761      502.8707     7                   1110.9548    24580         
   1404  1117      340.3843     3                   1110.9548    35604         
   1648  1292      493.8186     6                   1110.9548    39629         
   1942  1480      402.4731     7                   1110.9548    43911         
   2200  1756      744.3238     5                   1110.9548    50904         
   2453  1868      393.3150     7                   1110.9548    53559         
*  2776  1925      integral     0      786.4479     1110.9548    56339   41.26%
Elapsed time = 23.84 sec. (7767.74 ticks, tree = 23.34 MB, solutions = 1)
   4220    60     1110.9548     5      979.4358     1110.9548    80273   13.43%

Cover cuts applied:  6
Implied bound cuts applied:  3
Flow cuts applied:  56
Mixed integer rounding cuts applied:  3
Gomory fractional cuts applied:  24

Root node processing (before b&c):
  Real time             =    6.52 sec. (5247.01 ticks)
Parallel b&c, 32 threads:
  Real time             =   23.30 sec. (4149.60 ticks)
  Sync time (average)   =    2.93 sec.
  Wait time (average)   =    0.00 sec.
                          ------------
Total (root+branch&cut) =   29.81 sec. (9396.61 ticks)

Solution pool: 2 solutions saved.

MIP - Integer optimal, tolerance (0.05/1e-06):  Objective =  9.7943580795e+02
Current MIP best bound =  9.8660273162e+02 (gap = 7.16692, 0.73%)
Solution time =   29.81 sec.  Iterations = 80641  Nodes = 4295 (20)
Deterministic time = 9396.92 ticks  (315.21 ticks/sec)

CPLEX> Incumbent solution written to file 'C:\Users\llavin\Desktop\test826\logs\tmpydbvkou1.cplex.sol'.
CPLEX> Exporting results... 
